\* ILP *\
Maximize
Obj: 8.49841629498 yv_0_0 + 2.42836671822 yv_0_1 + 0.693889862944 yv_0_2
 + 0.198274477361 yv_0_3 + 11.1567373341 yv_10_0 + 3.18796452018 yv_10_1
 + 0.910939952923 yv_10_2 + 0.260295117019 yv_10_3 + 8.79093424716 yv_11_0
 + 2.51195180454 yv_11_1 + 0.717773753154 yv_11_2 + 0.205099142343 yv_11_3
 + 6.90239729272 yv_12_0 + 1.97231475604 yv_12_1 + 0.563576005833 yv_12_2
 + 0.161038147374 yv_12_3 + 1.27270968669 yv_13_0 + 0.363668445724 yv_13_1
 + 0.103915873194 yv_13_2 + 0.0296932792183 yv_13_3 + 1.55496385107 yv_14_0
 + 0.444320721993 yv_14_1 + 0.126961732169 yv_14_2 + 0.0362784822708 yv_14_3
 + 22.8766697869 yv_15_0 + 3.7705494246 yv_15_1 + 0.621464710371 yv_15_2
 + 0.102430267514 yv_15_3 + 0.676208975056 yv_16_0 + 0.111453257207 yv_16_1
 + 0.0183698072643 yv_16_2 + 0.00302772505157 yv_16_3 + 18.6321580665 yv_17_0
 + 3.07096590244 yv_17_1 + 0.506158843235 yv_17_2 + 0.0834254702671 yv_17_3
 + 16.5307086364 yv_18_0 + 2.72460347235 yv_18_1 + 0.449071134506 yv_18_2
 + 0.0740162324145 yv_18_3 + 13.0768412561 yv_19_0 + 2.15533452784 yv_19_1
 + 0.355243811249 yv_19_2 + 0.0585515444588 yv_19_3 + 3.4742921689 yv_1_0
 + 0.992756200625 yv_1_1 + 0.283673573196 yv_1_2 + 0.0810578630274 yv_1_3
 + 18.9338513016 yv_20_0 + 3.12069120181 yv_20_1 + 0.514354603399 yv_20_2
 + 0.0847763014439 yv_20_3 + 14.4084527762 yv_21_0 + 2.37481171127 yv_21_1
 + 0.391418200938 yv_21_2 + 0.0645138337911 yv_21_3 + 4.55660817038 yv_22_0
 + 0.751023487028 yv_22_1 + 0.123784239719 yv_22_2 + 0.020402208809 yv_22_3
 + 15.0222424612 yv_23_0 + 2.4759769755 yv_23_1 + 0.408092333686 yv_23_2
 + 0.0672620765302 yv_23_3 + 4.72305961039 yv_24_0 + 0.778458134956 yv_24_1
 + 0.12830603843 yv_24_2 + 0.0211474949756 yv_24_3 + 4.93175003592 yv_25_0
 + 1.40921522718 yv_25_1 + 0.402674008629 yv_25_2 + 0.115061456971 yv_25_3
 + 18.8298191516 yv_26_0 + 3.10354454685 yv_26_1 + 0.511528479205 yv_26_2
 + 0.0843104975898 yv_26_3 + 3.87971178684 yv_27_0 + 1.10860219745 yv_27_1
 + 0.316775806996 yv_27_2 + 0.09051660923 yv_27_3 + 5.26019124538 yv_28_0
 + 1.50306514866 yv_28_1 + 0.429491008163 yv_28_2 + 0.122724238705 yv_28_3
 + 6.90773476057 yv_29_0 + 1.13853788901 yv_29_1 + 0.187654646515 yv_29_2
 + 0.0309293759114 yv_29_3 + 6.55856040156 yv_2_0 + 1.8740656195 yv_2_1
 + 0.535501959446 yv_2_2 + 0.153016172746 yv_2_3 + 6.60604152555 yv_30_0
 + 1.08881258964 yv_30_1 + 0.179458886351 yv_30_2 + 0.0295785447346 yv_30_3
 + 9.79982853081 yv_31_0 + 1.61521489676 yv_31_1 + 0.266220899122 yv_31_2
 + 0.043878723055 yv_31_3 + 19.3083670416 yv_32_0 + 3.18241915964 yv_32_1
 + 0.524528650499 yv_32_2 + 0.0864531953186 yv_32_3 + 18.5905452065 yv_33_0
 + 3.06410724046 yv_33_1 + 0.505028393557 yv_33_2 + 0.0832391487254 yv_33_3
 + 6.31475150552 yv_34_0 + 1.04080195577 yv_34_1 + 0.171545738606 yv_34_2
 + 0.0282742939431 yv_34_3 + 6.0026550555 yv_35_0 + 0.989361990903 yv_35_1
 + 0.163067366023 yv_35_2 + 0.0268768823808 yv_35_3 + 6.79329939556 yv_36_0
 + 1.11967656856 yv_36_1 + 0.184545909901 yv_36_2 + 0.0304169916719 yv_36_3
 + 20.3174788967 yv_37_0 + 3.34874171271 yv_37_1 + 0.551942055186 yv_37_2
 + 0.0909714927033 yv_37_3 + 15.3655485563 yv_38_0 + 2.53256093685 yv_38_1
 + 0.417418543528 yv_38_2 + 0.0687992292487 yv_38_3 + 0.215539543713 yv_39_0
 + 0.0615890109694 yv_39_1 + 0.0175986559442 yv_39_2
 + 0.00502870051278 yv_39_3 + 7.7081046347 yv_3_0 + 2.20254034467 yv_3_1
 + 0.629361457815 yv_3_2 + 0.179835908814 yv_3_3 + 10.356161886 yv_4_0
 + 2.95920533658 yv_4_1 + 0.845573516558 yv_4_2 + 0.241617086543 yv_4_3
 + 8.97055053359 yv_5_0 + 2.56327598034 yv_5_1 + 0.732439299774 yv_5_2
 + 0.209289726103 yv_5_3 + 7.48743319709 yv_6_0 + 2.13948492867 yv_6_1
 + 0.611343786253 yv_6_2 + 0.174687477337 yv_6_3 + 4.17222973902 yv_7_0
 + 1.19218728376 yv_7_1 + 0.340659697206 yv_7_2 + 0.0973412742117 yv_7_3
 + 7.86719334554 yv_8_0 + 2.24799890038 yv_8_1 + 0.642350941964 yv_8_2
 + 0.183547568716 yv_8_3 + 21.3682036118 yv_9_0 + 3.52192292775 yv_9_1
 + 0.58048590955 yv_9_2 + 0.0956761116296 yv_9_3
Subject To
_C1: sv_0 + sv_1 + sv_10 + sv_11 + sv_12 + sv_13 + sv_14 + sv_15 + sv_16
 + sv_17 + sv_18 + sv_19 + sv_2 + sv_20 + sv_21 + sv_22 + sv_23 + sv_24
 + sv_25 + sv_26 + sv_27 + sv_28 + sv_29 + sv_3 + sv_30 + sv_31 + sv_32
 + sv_33 + sv_34 + sv_35 + sv_36 + sv_37 + sv_38 + sv_39 + sv_4 + sv_5 + sv_6
 + sv_7 + sv_8 + sv_9 = 4
_C10: sv_8 <= 3
_C11: sv_9 <= 3
_C12: sv_10 <= 3
_C13: sv_11 <= 3
_C14: sv_12 <= 3
_C15: sv_13 <= 3
_C16: sv_14 <= 3
_C17: sv_15 <= 3
_C18: sv_16 <= 3
_C19: sv_17 <= 3
_C2: sv_0 <= 3
_C20: sv_18 <= 3
_C21: sv_19 <= 3
_C22: sv_20 <= 3
_C23: sv_21 <= 3
_C24: sv_22 <= 3
_C25: sv_23 <= 3
_C26: sv_24 <= 3
_C27: sv_25 <= 3
_C28: sv_26 <= 3
_C29: sv_27 <= 3
_C3: sv_1 <= 3
_C30: sv_28 <= 3
_C31: sv_29 <= 3
_C32: sv_30 <= 3
_C33: sv_31 <= 3
_C34: sv_32 <= 3
_C35: sv_33 <= 3
_C36: sv_34 <= 3
_C37: sv_35 <= 3
_C38: sv_36 <= 3
_C39: sv_37 <= 3
_C4: sv_2 <= 3
_C40: sv_38 <= 3
_C41: sv_39 <= 3
_C42: sv_0 + sv_1 + sv_10 + sv_11 + sv_12 + sv_13 + sv_14 + sv_15 + sv_16
 + sv_17 + sv_19 + sv_2 + sv_28 + sv_3 + sv_31 + sv_32 + sv_33 + sv_34 + sv_35
 + sv_36 + sv_39 + sv_4 + sv_5 + sv_6 + sv_7 + sv_8 + sv_9 - yv_0_0 - yv_0_1
 - yv_0_2 - yv_0_3 >= 0
_C43: sv_0 + sv_1 + sv_10 + sv_11 + sv_12 + sv_13 + sv_15 + sv_16 + sv_17
 + sv_19 + sv_2 + sv_22 + sv_23 + sv_24 + sv_3 + sv_31 + sv_32 + sv_33 + sv_34
 + sv_35 + sv_36 + sv_4 + sv_5 + sv_6 + sv_7 + sv_8 + sv_9 - yv_1_0 - yv_1_1
 - yv_1_2 - yv_1_3 >= 0
_C44: sv_0 + sv_1 + sv_10 + sv_11 + sv_12 + sv_13 + sv_15 + sv_16 + sv_17
 + sv_19 + sv_2 + sv_22 + sv_23 + sv_3 + sv_31 + sv_32 + sv_33 + sv_34 + sv_36
 + sv_39 + sv_4 + sv_5 + sv_6 + sv_7 + sv_8 + sv_9 - yv_2_0 - yv_2_1 - yv_2_2
 - yv_2_3 >= 0
_C45: sv_0 + sv_1 + sv_10 + sv_11 + sv_12 + sv_13 + sv_14 + sv_15 + sv_16
 + sv_17 + sv_19 + sv_2 + sv_22 + sv_3 + sv_31 + sv_32 + sv_33 + sv_34 + sv_35
 + sv_36 + sv_39 + sv_4 + sv_5 + sv_6 + sv_7 + sv_8 + sv_9 - yv_3_0 - yv_3_1
 - yv_3_2 - yv_3_3 >= 0
_C46: sv_0 + sv_1 + sv_10 + sv_11 + sv_12 + sv_13 + sv_14 + sv_15 + sv_16
 + sv_2 + sv_28 + sv_3 + sv_31 + sv_32 + sv_33 + sv_34 + sv_35 + sv_36 + sv_39
 + sv_4 + sv_5 + sv_6 + sv_7 + sv_8 + sv_9 - yv_4_0 - yv_4_1 - yv_4_2 - yv_4_3
 >= 0
_C47: sv_0 + sv_1 + sv_10 + sv_11 + sv_12 + sv_13 + sv_14 + sv_15 + sv_16
 + sv_2 + sv_25 + sv_28 + sv_3 + sv_31 + sv_32 + sv_33 + sv_34 + sv_35 + sv_36
 + sv_39 + sv_4 + sv_5 + sv_6 + sv_7 + sv_8 + sv_9 - yv_5_0 - yv_5_1 - yv_5_2
 - yv_5_3 >= 0
_C48: sv_0 + sv_1 + sv_10 + sv_11 + sv_12 + sv_13 + sv_14 + sv_15 + sv_16
 + sv_17 + sv_19 + sv_2 + sv_23 + sv_25 + sv_27 + sv_28 + sv_3 + sv_31 + sv_32
 + sv_33 + sv_34 + sv_35 + sv_36 + sv_37 + sv_38 + sv_39 + sv_4 + sv_5 + sv_6
 + sv_7 + sv_8 + sv_9 - yv_6_0 - yv_6_1 - yv_6_2 - yv_6_3 >= 0
_C49: sv_0 + sv_1 + sv_10 + sv_11 + sv_12 + sv_13 + sv_14 + sv_15 + sv_16
 + sv_19 + sv_25 + sv_26 + sv_27 + sv_28 + sv_29 + sv_3 + sv_30 + sv_31
 + sv_32 + sv_33 + sv_34 + sv_35 + sv_36 + sv_37 + sv_38 + sv_4 + sv_5 + sv_6
 + sv_7 + sv_8 + sv_9 - yv_7_0 - yv_7_1 - yv_7_2 - yv_7_3 >= 0
_C5: sv_3 <= 3
_C50: sv_0 + sv_1 + sv_10 + sv_11 + sv_12 + sv_13 + sv_14 + sv_15 + sv_16
 + sv_17 + sv_18 + sv_19 + sv_2 + sv_22 + sv_23 + sv_3 + sv_31 + sv_32 + sv_33
 + sv_34 + sv_35 + sv_36 + sv_37 + sv_4 + sv_5 + sv_6 + sv_7 + sv_8 + sv_9
 - yv_8_0 - yv_8_1 - yv_8_2 - yv_8_3 >= 0
_C51: sv_0 + sv_1 + sv_10 + sv_12 + sv_13 + sv_14 + sv_15 + sv_16 + sv_17
 + sv_18 + sv_19 + sv_2 + sv_20 + sv_21 + sv_22 + sv_23 + sv_24 + sv_25
 + sv_27 + sv_28 + sv_3 + sv_30 + sv_31 + sv_32 + sv_33 + sv_34 + sv_35
 + sv_36 + sv_37 + sv_38 + sv_4 + sv_5 + sv_6 + sv_7 + sv_8 + sv_9 - yv_9_0
 - yv_9_1 - yv_9_2 - yv_9_3 >= 0
_C52: sv_0 + sv_1 + sv_10 + sv_12 + sv_13 + sv_14 + sv_15 + sv_16 + sv_17
 + sv_18 + sv_19 + sv_2 + sv_20 + sv_21 + sv_22 + sv_23 + sv_24 + sv_3 + sv_31
 + sv_32 + sv_33 + sv_34 + sv_35 + sv_36 + sv_37 + sv_4 + sv_5 + sv_6 + sv_7
 + sv_8 + sv_9 - yv_10_0 - yv_10_1 - yv_10_2 - yv_10_3 >= 0
_C53: sv_0 + sv_1 + sv_11 + sv_12 + sv_13 + sv_2 + sv_3 + sv_39 + sv_4 + sv_5
 + sv_6 + sv_8 - yv_11_0 - yv_11_1 - yv_11_2 - yv_11_3 >= 0
_C54: sv_0 + sv_1 + sv_10 + sv_11 + sv_12 + sv_13 + sv_14 + sv_2 + sv_25
 + sv_27 + sv_28 + sv_3 + sv_31 + sv_32 + sv_33 + sv_34 + sv_35 + sv_36
 + sv_39 + sv_4 + sv_5 + sv_6 + sv_7 + sv_8 + sv_9 - yv_12_0 - yv_12_1
 - yv_12_2 - yv_12_3 >= 0
_C55: sv_0 + sv_1 + sv_10 + sv_11 + sv_12 + sv_13 + sv_14 + sv_15 + sv_16
 + sv_17 + sv_19 + sv_2 + sv_25 + sv_27 + sv_28 + sv_3 + sv_31 + sv_32 + sv_33
 + sv_34 + sv_35 + sv_36 + sv_38 + sv_39 + sv_4 + sv_5 + sv_6 + sv_7 + sv_8
 + sv_9 - yv_13_0 - yv_13_1 - yv_13_2 - yv_13_3 >= 0
_C56: sv_0 + sv_10 + sv_12 + sv_13 + sv_14 + sv_15 + sv_25 + sv_26 + sv_27
 + sv_28 + sv_29 + sv_3 + sv_30 + sv_31 + sv_32 + sv_33 + sv_34 + sv_35
 + sv_36 + sv_37 + sv_38 + sv_4 + sv_5 + sv_6 + sv_7 + sv_8 + sv_9 - yv_14_0
 - yv_14_1 - yv_14_2 - yv_14_3 >= 0
_C57: sv_0 + sv_1 + sv_10 + sv_13 + sv_14 + sv_15 + sv_16 + sv_17 + sv_18
 + sv_19 + sv_2 + sv_20 + sv_21 + sv_22 + sv_23 + sv_24 + sv_29 + sv_3 + sv_30
 + sv_31 + sv_32 + sv_33 + sv_34 + sv_35 + sv_36 + sv_37 + sv_38 + sv_4 + sv_5
 + sv_6 + sv_7 + sv_8 + sv_9 - yv_15_0 - yv_15_1 - yv_15_2 - yv_15_3 >= 0
_C58: sv_0 + sv_1 + sv_10 + sv_13 + sv_15 + sv_16 + sv_17 + sv_18 + sv_19
 + sv_2 + sv_20 + sv_21 + sv_22 + sv_23 + sv_24 + sv_3 + sv_30 + sv_31 + sv_32
 + sv_33 + sv_34 + sv_35 + sv_36 + sv_37 + sv_38 + sv_4 + sv_5 + sv_6 + sv_7
 + sv_8 + sv_9 - yv_16_0 - yv_16_1 - yv_16_2 - yv_16_3 >= 0
_C59: sv_0 + sv_1 + sv_10 + sv_13 + sv_15 + sv_16 + sv_17 + sv_18 + sv_19
 + sv_20 + sv_21 + sv_22 + sv_23 + sv_24 + sv_30 + sv_31 + sv_32 + sv_33
 + sv_34 + sv_35 + sv_36 + sv_37 + sv_38 + sv_6 + sv_7 + sv_8 + sv_9 - yv_17_0
 - yv_17_1 - yv_17_2 - yv_17_3 >= 0
_C6: sv_4 <= 3
_C60: sv_10 + sv_15 + sv_16 + sv_17 + sv_18 + sv_19 + sv_20 + sv_21 + sv_22
 + sv_23 + sv_24 + sv_31 + sv_32 + sv_33 + sv_34 + sv_35 + sv_36 + sv_37
 + sv_38 + sv_9 - yv_18_0 - yv_18_1 - yv_18_2 - yv_18_3 >= 0
_C61: sv_0 + sv_1 + sv_10 + sv_13 + sv_14 + sv_15 + sv_16 + sv_17 + sv_18
 + sv_19 + sv_20 + sv_21 + sv_22 + sv_23 + sv_24 + sv_29 + sv_3 + sv_30
 + sv_31 + sv_32 + sv_33 + sv_34 + sv_35 + sv_36 + sv_37 + sv_38 + sv_6 + sv_7
 + sv_8 + sv_9 - yv_19_0 - yv_19_1 - yv_19_2 - yv_19_3 >= 0
_C62: sv_15 + sv_16 + sv_17 + sv_18 + sv_19 + sv_20 + sv_21 + sv_22 + sv_23
 + sv_24 + sv_31 + sv_32 + sv_33 + sv_34 + sv_35 + sv_37 + sv_9 - yv_20_0
 - yv_20_1 - yv_20_2 - yv_20_3 >= 0
_C63: sv_10 + sv_15 + sv_16 + sv_17 + sv_18 + sv_19 + sv_20 + sv_21 + sv_22
 + sv_23 + sv_24 + sv_31 + sv_32 + sv_33 + sv_37 + sv_9 - yv_21_0 - yv_21_1
 - yv_21_2 - yv_21_3 >= 0
_C64: sv_10 + sv_15 + sv_16 + sv_17 + sv_18 + sv_19 + sv_20 + sv_21 + sv_22
 + sv_23 + sv_24 + sv_31 + sv_32 + sv_33 + sv_34 + sv_36 + sv_37 + sv_9
 - yv_22_0 - yv_22_1 - yv_22_2 - yv_22_3 >= 0
_C65: sv_10 + sv_15 + sv_16 + sv_17 + sv_18 + sv_19 + sv_20 + sv_21 + sv_22
 + sv_23 + sv_24 + sv_31 + sv_32 + sv_33 + sv_34 + sv_35 + sv_36 + sv_37
 + sv_8 + sv_9 - yv_23_0 - yv_23_1 - yv_23_2 - yv_23_3 >= 0
_C66: sv_10 + sv_15 + sv_16 + sv_17 + sv_18 + sv_19 + sv_20 + sv_21 + sv_22
 + sv_23 + sv_24 + sv_31 + sv_32 + sv_33 + sv_37 + sv_9 - yv_24_0 - yv_24_1
 - yv_24_2 - yv_24_3 >= 0
_C67: sv_12 + sv_13 + sv_14 + sv_25 + sv_26 + sv_27 + sv_28 + sv_29 + sv_30
 + sv_31 + sv_32 + sv_33 + sv_34 + sv_35 + sv_36 + sv_38 + sv_6 + sv_7 + sv_9
 - yv_25_0 - yv_25_1 - yv_25_2 - yv_25_3 >= 0
_C68: sv_14 + sv_25 + sv_26 + sv_27 + sv_28 + sv_29 + sv_30 + sv_31 + sv_32
 + sv_34 + sv_35 + sv_36 + sv_38 + sv_7 - yv_26_0 - yv_26_1 - yv_26_2
 - yv_26_3 >= 0
_C69: sv_12 + sv_13 + sv_14 + sv_25 + sv_26 + sv_27 + sv_28 + sv_29 + sv_30
 + sv_31 + sv_32 + sv_33 + sv_34 + sv_35 + sv_36 + sv_38 + sv_6 + sv_7 + sv_9
 - yv_27_0 - yv_27_1 - yv_27_2 - yv_27_3 >= 0
_C7: sv_5 <= 3
_C70: sv_0 + sv_12 + sv_13 + sv_14 + sv_25 + sv_26 + sv_27 + sv_28 + sv_29
 + sv_30 + sv_32 + sv_33 + sv_34 + sv_35 + sv_36 + sv_38 + sv_4 + sv_5 + sv_6
 + sv_7 + sv_9 - yv_28_0 - yv_28_1 - yv_28_2 - yv_28_3 >= 0
_C71: sv_14 + sv_25 + sv_26 + sv_27 + sv_28 + sv_29 + sv_30 + sv_31 + sv_32
 + sv_33 + sv_34 + sv_35 + sv_36 + sv_37 + sv_38 + sv_7 - yv_29_0 - yv_29_1
 - yv_29_2 - yv_29_3 >= 0
_C72: sv_14 + sv_15 + sv_16 + sv_17 + sv_18 + sv_19 + sv_25 + sv_26 + sv_27
 + sv_28 + sv_29 + sv_30 + sv_31 + sv_32 + sv_33 + sv_34 + sv_35 + sv_36
 + sv_37 + sv_38 + sv_7 + sv_9 - yv_30_0 - yv_30_1 - yv_30_2 - yv_30_3 >= 0
_C73: sv_0 + sv_1 + sv_10 + sv_12 + sv_13 + sv_14 + sv_15 + sv_16 + sv_17
 + sv_18 + sv_19 + sv_20 + sv_21 + sv_22 + sv_23 + sv_24 + sv_25 + sv_26
 + sv_27 + sv_29 + sv_3 + sv_30 + sv_31 + sv_32 + sv_33 + sv_34 + sv_35
 + sv_36 + sv_37 + sv_38 + sv_4 + sv_5 + sv_6 + sv_7 + sv_8 + sv_9 - yv_31_0
 - yv_31_1 - yv_31_2 - yv_31_3 >= 0
_C74: sv_0 + sv_1 + sv_10 + sv_12 + sv_13 + sv_14 + sv_15 + sv_16 + sv_17
 + sv_18 + sv_19 + sv_2 + sv_20 + sv_21 + sv_22 + sv_23 + sv_24 + sv_25
 + sv_26 + sv_27 + sv_28 + sv_29 + sv_3 + sv_30 + sv_31 + sv_32 + sv_33
 + sv_34 + sv_35 + sv_36 + sv_37 + sv_38 + sv_4 + sv_5 + sv_6 + sv_7 + sv_8
 + sv_9 - yv_32_0 - yv_32_1 - yv_32_2 - yv_32_3 >= 0
_C75: sv_0 + sv_1 + sv_10 + sv_12 + sv_13 + sv_14 + sv_15 + sv_16 + sv_17
 + sv_18 + sv_19 + sv_2 + sv_20 + sv_21 + sv_22 + sv_23 + sv_24 + sv_25
 + sv_27 + sv_28 + sv_29 + sv_3 + sv_30 + sv_31 + sv_32 + sv_33 + sv_34
 + sv_35 + sv_36 + sv_37 + sv_38 + sv_4 + sv_5 + sv_6 + sv_7 + sv_8 + sv_9
 - yv_33_0 - yv_33_1 - yv_33_2 - yv_33_3 >= 0
_C76: sv_0 + sv_1 + sv_10 + sv_12 + sv_13 + sv_14 + sv_15 + sv_16 + sv_17
 + sv_18 + sv_19 + sv_2 + sv_20 + sv_22 + sv_23 + sv_25 + sv_26 + sv_27
 + sv_28 + sv_29 + sv_3 + sv_30 + sv_31 + sv_32 + sv_33 + sv_34 + sv_35
 + sv_36 + sv_37 + sv_38 + sv_4 + sv_5 + sv_6 + sv_7 + sv_8 + sv_9 - yv_34_0
 - yv_34_1 - yv_34_2 - yv_34_3 >= 0
_C77: sv_0 + sv_1 + sv_10 + sv_12 + sv_13 + sv_14 + sv_15 + sv_16 + sv_17
 + sv_18 + sv_19 + sv_20 + sv_22 + sv_23 + sv_25 + sv_26 + sv_27 + sv_28
 + sv_29 + sv_3 + sv_30 + sv_31 + sv_32 + sv_33 + sv_34 + sv_35 + sv_36
 + sv_37 + sv_38 + sv_4 + sv_5 + sv_6 + sv_7 + sv_8 + sv_9 - yv_35_0 - yv_35_1
 - yv_35_2 - yv_35_3 >= 0
_C78: sv_0 + sv_1 + sv_10 + sv_12 + sv_13 + sv_14 + sv_15 + sv_16 + sv_17
 + sv_18 + sv_19 + sv_2 + sv_22 + sv_23 + sv_25 + sv_26 + sv_27 + sv_28
 + sv_29 + sv_3 + sv_30 + sv_31 + sv_32 + sv_33 + sv_34 + sv_35 + sv_36
 + sv_37 + sv_38 + sv_4 + sv_5 + sv_6 + sv_7 + sv_8 + sv_9 - yv_36_0 - yv_36_1
 - yv_36_2 - yv_36_3 >= 0
_C79: sv_10 + sv_14 + sv_15 + sv_16 + sv_17 + sv_18 + sv_19 + sv_20 + sv_21
 + sv_22 + sv_23 + sv_24 + sv_26 + sv_29 + sv_30 + sv_31 + sv_32 + sv_33
 + sv_34 + sv_35 + sv_36 + sv_37 + sv_38 + sv_6 + sv_7 + sv_8 + sv_9 - yv_37_0
 - yv_37_1 - yv_37_2 - yv_37_3 >= 0
_C8: sv_6 <= 3
_C80: sv_13 + sv_14 + sv_15 + sv_16 + sv_17 + sv_18 + sv_19 + sv_25 + sv_26
 + sv_27 + sv_28 + sv_29 + sv_30 + sv_31 + sv_32 + sv_33 + sv_34 + sv_35
 + sv_36 + sv_37 + sv_38 + sv_6 + sv_7 + sv_9 - yv_38_0 - yv_38_1 - yv_38_2
 - yv_38_3 >= 0
_C81: sv_0 + sv_11 + sv_12 + sv_13 + sv_2 + sv_3 + sv_39 + sv_4 + sv_5 + sv_6
 - yv_39_0 - yv_39_1 - yv_39_2 - yv_39_3 >= 0
_C9: sv_7 <= 3
Bounds
0 <= sv_0 <= 4
0 <= sv_1 <= 4
0 <= sv_10 <= 4
0 <= sv_11 <= 4
0 <= sv_12 <= 4
0 <= sv_13 <= 4
0 <= sv_14 <= 4
0 <= sv_15 <= 4
0 <= sv_16 <= 4
0 <= sv_17 <= 4
0 <= sv_18 <= 4
0 <= sv_19 <= 4
0 <= sv_2 <= 4
0 <= sv_20 <= 4
0 <= sv_21 <= 4
0 <= sv_22 <= 4
0 <= sv_23 <= 4
0 <= sv_24 <= 4
0 <= sv_25 <= 4
0 <= sv_26 <= 4
0 <= sv_27 <= 4
0 <= sv_28 <= 4
0 <= sv_29 <= 4
0 <= sv_3 <= 4
0 <= sv_30 <= 4
0 <= sv_31 <= 4
0 <= sv_32 <= 4
0 <= sv_33 <= 4
0 <= sv_34 <= 4
0 <= sv_35 <= 4
0 <= sv_36 <= 4
0 <= sv_37 <= 4
0 <= sv_38 <= 4
0 <= sv_39 <= 4
0 <= sv_4 <= 4
0 <= sv_5 <= 4
0 <= sv_6 <= 4
0 <= sv_7 <= 4
0 <= sv_8 <= 4
0 <= sv_9 <= 4
Generals
sv_0
sv_1
sv_10
sv_11
sv_12
sv_13
sv_14
sv_15
sv_16
sv_17
sv_18
sv_19
sv_2
sv_20
sv_21
sv_22
sv_23
sv_24
sv_25
sv_26
sv_27
sv_28
sv_29
sv_3
sv_30
sv_31
sv_32
sv_33
sv_34
sv_35
sv_36
sv_37
sv_38
sv_39
sv_4
sv_5
sv_6
sv_7
sv_8
sv_9
Binaries
yv_0_0
yv_0_1
yv_0_2
yv_0_3
yv_10_0
yv_10_1
yv_10_2
yv_10_3
yv_11_0
yv_11_1
yv_11_2
yv_11_3
yv_12_0
yv_12_1
yv_12_2
yv_12_3
yv_13_0
yv_13_1
yv_13_2
yv_13_3
yv_14_0
yv_14_1
yv_14_2
yv_14_3
yv_15_0
yv_15_1
yv_15_2
yv_15_3
yv_16_0
yv_16_1
yv_16_2
yv_16_3
yv_17_0
yv_17_1
yv_17_2
yv_17_3
yv_18_0
yv_18_1
yv_18_2
yv_18_3
yv_19_0
yv_19_1
yv_19_2
yv_19_3
yv_1_0
yv_1_1
yv_1_2
yv_1_3
yv_20_0
yv_20_1
yv_20_2
yv_20_3
yv_21_0
yv_21_1
yv_21_2
yv_21_3
yv_22_0
yv_22_1
yv_22_2
yv_22_3
yv_23_0
yv_23_1
yv_23_2
yv_23_3
yv_24_0
yv_24_1
yv_24_2
yv_24_3
yv_25_0
yv_25_1
yv_25_2
yv_25_3
yv_26_0
yv_26_1
yv_26_2
yv_26_3
yv_27_0
yv_27_1
yv_27_2
yv_27_3
yv_28_0
yv_28_1
yv_28_2
yv_28_3
yv_29_0
yv_29_1
yv_29_2
yv_29_3
yv_2_0
yv_2_1
yv_2_2
yv_2_3
yv_30_0
yv_30_1
yv_30_2
yv_30_3
yv_31_0
yv_31_1
yv_31_2
yv_31_3
yv_32_0
yv_32_1
yv_32_2
yv_32_3
yv_33_0
yv_33_1
yv_33_2
yv_33_3
yv_34_0
yv_34_1
yv_34_2
yv_34_3
yv_35_0
yv_35_1
yv_35_2
yv_35_3
yv_36_0
yv_36_1
yv_36_2
yv_36_3
yv_37_0
yv_37_1
yv_37_2
yv_37_3
yv_38_0
yv_38_1
yv_38_2
yv_38_3
yv_39_0
yv_39_1
yv_39_2
yv_39_3
yv_3_0
yv_3_1
yv_3_2
yv_3_3
yv_4_0
yv_4_1
yv_4_2
yv_4_3
yv_5_0
yv_5_1
yv_5_2
yv_5_3
yv_6_0
yv_6_1
yv_6_2
yv_6_3
yv_7_0
yv_7_1
yv_7_2
yv_7_3
yv_8_0
yv_8_1
yv_8_2
yv_8_3
yv_9_0
yv_9_1
yv_9_2
yv_9_3
End
